; PUSH cw_3 DUP1 DUP3 MLOAD SWAP1 => PUSH cw_3 DUP2 MLOAD PUSH cw_3
(set-option :produce-proofs true)
; 
(set-info :status unknown)
(declare-fun storage_t ((_ BitVec 256) (_ BitVec 256) (_ BitVec 256) Int (_ BitVec 256)) (_ BitVec 256))
(declare-fun w_3 () (_ BitVec 256))
(declare-fun storage_s ((_ BitVec 256) (_ BitVec 256) (_ BitVec 256) Int (_ BitVec 256)) (_ BitVec 256))
(declare-fun exc_halt_t (Int) Bool)
(declare-fun exc_halt_s (Int) Bool)
(declare-fun sc_t (Int) (_ BitVec 6))
(declare-fun stack_t ((_ BitVec 256) (_ BitVec 256) (_ BitVec 256) Int (_ BitVec 6)) (_ BitVec 256))
(declare-fun stack_s ((_ BitVec 256) (_ BitVec 256) (_ BitVec 256) Int (_ BitVec 6)) (_ BitVec 256))
(declare-fun sc_s (Int) (_ BitVec 6))
(declare-fun used_gas_t ((_ BitVec 256) (_ BitVec 256) (_ BitVec 256) Int) Int)
(declare-fun used_gas_s ((_ BitVec 256) (_ BitVec 256) (_ BitVec 256) Int) Int)
(declare-fun f_MLOAD ((_ BitVec 256) (_ BitVec 256) (_ BitVec 256) (_ BitVec 256)) (_ BitVec 256))
(assert
 (exists ((x_0 (_ BitVec 256)) (x_MLOAD_0 (_ BitVec 256)) )(let (($x363 (forall ((w (_ BitVec 256)) )(let ((?x727 (storage_t x_0 w_3 x_MLOAD_0 4 w)))
 (let ((?x2333 (storage_s x_0 w_3 x_MLOAD_0 5 w)))
 (= ?x2333 ?x727))))
 ))
 (let (($x3723 (exc_halt_t 4)))
 (let (($x3979 (exc_halt_s 5)))
 (let (($x7567 (= $x3979 $x3723)))
 (let (($x4935 (forall ((n (_ BitVec 6)) )(let ((?x3757 (sc_t 4)))
 (let (($x8481 (bvsle ?x3757 n)))
 (let ((?x1176 (stack_t x_0 w_3 x_MLOAD_0 4 n)))
 (let ((?x2018 (stack_s x_0 w_3 x_MLOAD_0 5 n)))
 (let (($x6952 (= ?x2018 ?x1176)))
 (or $x6952 $x8481)))))))
 ))
 (let ((?x3757 (sc_t 4)))
 (let ((?x805 (sc_s 5)))
 (let (($x9143 (= ?x805 ?x3757)))
 (let ((?x985 (used_gas_t x_0 w_3 x_MLOAD_0 0)))
 (let ((?x92 (used_gas_s x_0 w_3 x_MLOAD_0 0)))
 (let (($x1481 (= ?x92 ?x985)))
 (let (($x8209 (forall ((w (_ BitVec 256)) )(let ((?x1568 (storage_t x_0 w_3 x_MLOAD_0 0 w)))
 (let ((?x1217 (storage_s x_0 w_3 x_MLOAD_0 0 w)))
 (= ?x1217 ?x1568))))
 ))
 (let (($x56 (exc_halt_t 0)))
 (let (($x57 (exc_halt_s 0)))
 (let (($x58 (= $x57 $x56)))
 (let (($x8108 (forall ((n (_ BitVec 6)) )(let ((?x63 (sc_t 0)))
 (let (($x2788 (bvsle ?x63 n)))
 (let ((?x6682 (stack_t x_0 w_3 x_MLOAD_0 0 n)))
 (let ((?x2842 (stack_s x_0 w_3 x_MLOAD_0 0 n)))
 (let (($x759 (= ?x2842 ?x6682)))
 (or $x759 $x2788)))))))
 ))
 (let ((?x63 (sc_t 0)))
 (let ((?x72 (sc_s 0)))
 (let (($x73 (= ?x72 ?x63)))
 (let (($x10336 (exc_halt_t 3)))
 (let (($x8480 (or $x10336 (not (= ((_ extract 6 6) (bvadd (_ bv1 7) (concat (_ bv0 1) (sc_t 3)))) (_ bv0 1))))))
 (let (($x8512 (= $x3723 $x8480)))
 (let (($x8156 (forall ((w (_ BitVec 256)) )(let ((?x2054 (storage_t x_0 w_3 x_MLOAD_0 3 w)))
 (let ((?x727 (storage_t x_0 w_3 x_MLOAD_0 4 w)))
 (= ?x727 ?x2054))))
 ))
 (let (($x5578 (forall ((n (_ BitVec 6)) )(let ((?x2012 (sc_t 3)))
 (let (($x1783 (bvsle ?x2012 n)))
 (let ((?x2071 (stack_t x_0 w_3 x_MLOAD_0 3 n)))
 (let ((?x1176 (stack_t x_0 w_3 x_MLOAD_0 4 n)))
 (or (= ?x1176 ?x2071) $x1783))))))
 ))
 (let (($x2418 (= ?x3757 (bvadd (_ bv1 6) (sc_t 3)))))
 (let (($x1980 (= (used_gas_t x_0 w_3 x_MLOAD_0 4) (+ 3 (used_gas_t x_0 w_3 x_MLOAD_0 3)))))
 (let (($x1973 (= $x10336 (or (exc_halt_t 2) (not (bvsle (_ bv0 6) (bvadd (_ bv63 6) (sc_t 2))))))))
 (let (($x750 (forall ((w (_ BitVec 256)) )(let ((?x664 (storage_t x_0 w_3 x_MLOAD_0 2 w)))
 (let ((?x2054 (storage_t x_0 w_3 x_MLOAD_0 3 w)))
 (= ?x2054 ?x664))))
 ))
 (let (($x4510 (forall ((n (_ BitVec 6)) )(let ((?x716 (stack_t x_0 w_3 x_MLOAD_0 2 n)))
 (let ((?x2071 (stack_t x_0 w_3 x_MLOAD_0 3 n)))
 (or (bvsle (bvadd (_ bv63 6) (sc_t 2)) n) (= ?x2071 ?x716)))))
 ))
 (let ((?x4569 (used_gas_t x_0 w_3 x_MLOAD_0 3)))
 (let ((?x4056 (sc_t 2)))
 (let ((?x8500 (bvadd (_ bv63 6) ?x4056)))
 (let ((?x918 (stack_t x_0 w_3 x_MLOAD_0 2 ?x8500)))
 (let (($x341 (= (stack_t x_0 w_3 x_MLOAD_0 3 (bvadd (_ bv63 6) (sc_t 3))) (f_MLOAD x_0 w_3 x_MLOAD_0 ?x918))))
 (let (($x5482 (not (= ((_ extract 6 6) (bvadd (_ bv1 7) (concat (_ bv0 1) (sc_t 1)))) (_ bv0 1)))))
 (let (($x1920 (exc_halt_t 1)))
 (let (($x903 (exc_halt_t 2)))
 (let (($x4320 (forall ((w (_ BitVec 256)) )(let ((?x1791 (storage_t x_0 w_3 x_MLOAD_0 1 w)))
 (let ((?x664 (storage_t x_0 w_3 x_MLOAD_0 2 w)))
 (= ?x664 ?x1791))))
 ))
 (let (($x4747 (forall ((n (_ BitVec 6)) )(let ((?x1924 (stack_t x_0 w_3 x_MLOAD_0 1 n)))
 (let ((?x716 (stack_t x_0 w_3 x_MLOAD_0 2 n)))
 (or (bvsle (bvadd (_ bv62 6) (sc_t 1)) n) (= ?x716 ?x1924)))))
 ))
 (let (($x2529 (= ?x4056 (bvadd (_ bv1 6) (sc_t 1)))))
 (let ((?x1242 (used_gas_t x_0 w_3 x_MLOAD_0 2)))
 (let (($x252 (= (stack_t x_0 w_3 x_MLOAD_0 2 (bvadd (_ bv63 6) (sc_t 1))) (stack_t x_0 w_3 x_MLOAD_0 1 (bvadd (_ bv63 6) (sc_t 1))))))
 (let ((?x4023 (sc_t 1)))
 (let ((?x361 (bvadd (_ bv62 6) ?x4023)))
 (let ((?x99 (stack_t x_0 w_3 x_MLOAD_0 1 ?x361)))
 (let (($x6203 (= $x1920 (or $x56 (not (= ((_ extract 6 6) (bvadd (_ bv1 7) (concat (_ bv0 1) ?x63))) (_ bv0 1)))))))
 (let (($x200 (forall ((w (_ BitVec 256)) )(let ((?x1568 (storage_t x_0 w_3 x_MLOAD_0 0 w)))
 (let ((?x1791 (storage_t x_0 w_3 x_MLOAD_0 1 w)))
 (= ?x1791 ?x1568))))
 ))
 (let (($x1098 (forall ((n (_ BitVec 6)) )(let ((?x6682 (stack_t x_0 w_3 x_MLOAD_0 0 n)))
 (let ((?x1924 (stack_t x_0 w_3 x_MLOAD_0 1 n)))
 (let ((?x63 (sc_t 0)))
 (let (($x2788 (bvsle ?x63 n)))
 (or $x2788 (= ?x1924 ?x6682)))))))
 ))
 (let (($x7517 (= ?x4023 (bvadd (_ bv1 6) ?x63))))
 (let (($x6033 (= $x3979 (or (exc_halt_s 4) (not (bvsle (_ bv0 6) (bvadd (_ bv62 6) (sc_s 4))))))))
 (let (($x1000 (forall ((w (_ BitVec 256)) )(let ((?x1258 (storage_s x_0 w_3 x_MLOAD_0 4 w)))
 (let ((?x2333 (storage_s x_0 w_3 x_MLOAD_0 5 w)))
 (= ?x2333 ?x1258))))
 ))
 (let (($x1386 (forall ((n (_ BitVec 6)) )(let ((?x4305 (sc_s 4)))
 (let ((?x9282 (bvadd (_ bv62 6) ?x4305)))
 (let (($x1651 (bvsle ?x9282 n)))
 (let ((?x5455 (stack_s x_0 w_3 x_MLOAD_0 4 n)))
 (let ((?x2018 (stack_s x_0 w_3 x_MLOAD_0 5 n)))
 (or (= ?x2018 ?x5455) $x1651)))))))
 ))
 (let (($x4567 (= (used_gas_s x_0 w_3 x_MLOAD_0 5) (+ 3 (used_gas_s x_0 w_3 x_MLOAD_0 4)))))
 (let ((?x4305 (sc_s 4)))
 (let ((?x8635 (bvadd (_ bv63 6) ?x4305)))
 (let ((?x4408 (stack_s x_0 w_3 x_MLOAD_0 4 ?x8635)))
 (let (($x4343 (= (stack_s x_0 w_3 x_MLOAD_0 5 (bvadd (_ bv63 6) ?x805)) (stack_s x_0 w_3 x_MLOAD_0 4 (bvadd (_ bv62 6) ?x4305)))))
 (let (($x64 (exc_halt_s 4)))
 (let (($x1102 (= $x64 (or (exc_halt_s 3) (not (bvsle (_ bv0 6) (bvadd (_ bv63 6) (sc_s 3))))))))
 (let (($x4381 (forall ((w (_ BitVec 256)) )(let ((?x810 (storage_s x_0 w_3 x_MLOAD_0 3 w)))
 (let ((?x1258 (storage_s x_0 w_3 x_MLOAD_0 4 w)))
 (= ?x1258 ?x810))))
 ))
 (let (($x4500 (forall ((n (_ BitVec 6)) )(let ((?x6985 (stack_s x_0 w_3 x_MLOAD_0 3 n)))
 (let ((?x5455 (stack_s x_0 w_3 x_MLOAD_0 4 n)))
 (let ((?x275 (sc_s 3)))
 (let ((?x8615 (bvadd (_ bv63 6) ?x275)))
 (let (($x912 (bvsle ?x8615 n)))
 (or $x912 (= ?x5455 ?x6985))))))))
 ))
 (let ((?x275 (sc_s 3)))
 (let (($x858 (= ?x4305 ?x275)))
 (let ((?x2192 (used_gas_s x_0 w_3 x_MLOAD_0 4)))
 (let ((?x8615 (bvadd (_ bv63 6) ?x275)))
 (let ((?x5953 (stack_s x_0 w_3 x_MLOAD_0 3 ?x8615)))
 (let (($x6374 (not (bvsle (_ bv0 6) (bvadd (_ bv61 6) (sc_s 2))))))
 (let (($x2638 (not (= ((_ extract 6 6) (bvadd (_ bv1 7) (concat (_ bv0 1) (sc_s 2)))) (_ bv0 1)))))
 (let (($x247 (exc_halt_s 2)))
 (let (($x292 (exc_halt_s 3)))
 (let (($x4347 (forall ((w (_ BitVec 256)) )(let ((?x1443 (storage_s x_0 w_3 x_MLOAD_0 2 w)))
 (let ((?x810 (storage_s x_0 w_3 x_MLOAD_0 3 w)))
 (= ?x810 ?x1443))))
 ))
 (let (($x4324 (forall ((n (_ BitVec 6)) )(let ((?x218 (sc_s 2)))
 (let ((?x8305 (bvadd (_ bv61 6) ?x218)))
 (let (($x8671 (bvsle ?x8305 n)))
 (let ((?x46 (stack_s x_0 w_3 x_MLOAD_0 2 n)))
 (let ((?x6985 (stack_s x_0 w_3 x_MLOAD_0 3 n)))
 (or (= ?x6985 ?x46) $x8671)))))))
 ))
 (let (($x1897 (= ?x275 (bvadd (_ bv1 6) (sc_s 2)))))
 (let ((?x8202 (used_gas_s x_0 w_3 x_MLOAD_0 3)))
 (let ((?x218 (sc_s 2)))
 (let ((?x11283 (bvadd (_ bv63 6) ?x218)))
 (let ((?x2432 (stack_s x_0 w_3 x_MLOAD_0 2 ?x11283)))
 (let (($x2843 (= (stack_s x_0 w_3 x_MLOAD_0 3 (bvadd (_ bv62 6) ?x218)) (stack_s x_0 w_3 x_MLOAD_0 2 (bvadd (_ bv62 6) ?x218)))))
 (let ((?x8305 (bvadd (_ bv61 6) ?x218)))
 (let ((?x2181 (stack_s x_0 w_3 x_MLOAD_0 2 ?x8305)))
 (let (($x3403 (not (bvsle (_ bv0 6) (bvadd (_ bv63 6) (sc_s 1))))))
 (let (($x2107 (not (= ((_ extract 6 6) (bvadd (_ bv1 7) (concat (_ bv0 1) (sc_s 1)))) (_ bv0 1)))))
 (let (($x189 (exc_halt_s 1)))
 (let (($x2707 (= $x247 (or $x189 $x2107 $x3403))))
 (let (($x4547 (forall ((w (_ BitVec 256)) )(let ((?x956 (storage_s x_0 w_3 x_MLOAD_0 1 w)))
 (let ((?x1443 (storage_s x_0 w_3 x_MLOAD_0 2 w)))
 (= ?x1443 ?x956))))
 ))
 (let (($x4507 (forall ((n (_ BitVec 6)) )(let ((?x4589 (stack_s x_0 w_3 x_MLOAD_0 1 n)))
 (let ((?x46 (stack_s x_0 w_3 x_MLOAD_0 2 n)))
 (let ((?x154 (sc_s 1)))
 (let ((?x7444 (bvadd (_ bv63 6) ?x154)))
 (let (($x2123 (bvsle ?x7444 n)))
 (or $x2123 (= ?x46 ?x4589))))))))
 ))
 (let (($x8657 (= ?x218 (bvadd (_ bv1 6) (sc_s 1)))))
 (let ((?x9144 (used_gas_s x_0 w_3 x_MLOAD_0 2)))
 (let ((?x154 (sc_s 1)))
 (let ((?x7444 (bvadd (_ bv63 6) ?x154)))
 (let ((?x5403 (stack_s x_0 w_3 x_MLOAD_0 1 ?x7444)))
 (let (($x8439 (= $x189 (or $x57 (not (= ((_ extract 6 6) (bvadd (_ bv1 7) (concat (_ bv0 1) ?x72))) (_ bv0 1)))))))
 (let (($x885 (forall ((w (_ BitVec 256)) )(let ((?x1217 (storage_s x_0 w_3 x_MLOAD_0 0 w)))
 (let ((?x956 (storage_s x_0 w_3 x_MLOAD_0 1 w)))
 (= ?x956 ?x1217))))
 ))
 (let (($x4398 (forall ((n (_ BitVec 6)) )(let ((?x72 (sc_s 0)))
 (let (($x8461 (bvsle ?x72 n)))
 (let ((?x2842 (stack_s x_0 w_3 x_MLOAD_0 0 n)))
 (let ((?x4589 (stack_s x_0 w_3 x_MLOAD_0 1 n)))
 (or (= ?x4589 ?x2842) $x8461))))))
 ))
 (let (($x8455 (= ?x154 (bvadd (_ bv1 6) ?x72))))
 (let (($x4638 (forall ((w0 (_ BitVec 256)) )(let ((?x1379 (ite (= (stack_s x_0 w_3 x_MLOAD_0 3 (bvadd (_ bv63 6) (sc_s 3))) w0) x_MLOAD_0 (_ bv0 256))))
 (let ((?x2019 (f_MLOAD x_0 w_3 x_MLOAD_0 w0)))
 (= ?x2019 ?x1379))))
 ))
 (let (($x4658 (forall ((w (_ BitVec 256)) )(let ((?x1217 (storage_s x_0 w_3 x_MLOAD_0 0 w)))
 (= ?x1217 (_ bv0 256))))
 ))
 (let (($x204 (= ?x92 0)))
 (let (($x2233 (not $x57)))
 (let (($x1055 (= (stack_s x_0 w_3 x_MLOAD_0 0 (_ bv0 6)) x_0)))
 (let (($x8685 (= ?x72 (_ bv1 6))))
 (and $x8685 $x1055 $x2233 $x204 $x4658 $x4638 (= (stack_s x_0 w_3 x_MLOAD_0 1 ?x72) w_3) (= (used_gas_s x_0 w_3 x_MLOAD_0 1) (+ 3 ?x92)) $x8455 $x4398 $x885 $x8439 (= ?x2432 ?x5403) (= (stack_s x_0 w_3 x_MLOAD_0 2 ?x7444) ?x5403) (= ?x9144 (+ 3 (used_gas_s x_0 w_3 x_MLOAD_0 1))) $x8657 $x4507 $x4547 $x2707 (= ?x5953 ?x2181) (= (stack_s x_0 w_3 x_MLOAD_0 3 ?x8305) ?x2181) $x2843 (= (stack_s x_0 w_3 x_MLOAD_0 3 ?x11283) ?x2432) (= ?x8202 (+ 3 ?x9144)) $x1897 $x4324 $x4347 (= $x292 (or $x247 $x2638 $x6374)) (= ?x4408 (f_MLOAD x_0 w_3 x_MLOAD_0 ?x5953)) (= ?x2192 (+ 3 ?x8202)) $x858 $x4500 $x4381 $x1102 $x4343 (= (stack_s x_0 w_3 x_MLOAD_0 5 (bvadd (_ bv62 6) ?x805)) ?x4408) $x4567 (= ?x805 ?x4305) $x1386 $x1000 $x6033 (= (stack_t x_0 w_3 x_MLOAD_0 1 ?x63) w_3) (= (used_gas_t x_0 w_3 x_MLOAD_0 1) (+ 3 ?x985)) $x7517 $x1098 $x200 $x6203 (= ?x918 ?x99) (= (stack_t x_0 w_3 x_MLOAD_0 2 ?x361) ?x99) $x252 (= ?x1242 (+ 3 (used_gas_t x_0 w_3 x_MLOAD_0 1))) $x2529 $x4747 $x4320 (= $x903 (or $x1920 (not (bvsle (_ bv0 6) ?x361)) $x5482)) $x341 (= ?x4569 (+ 3 ?x1242)) (= (sc_t 3) ?x4056) $x4510 $x750 $x1973 (= (stack_t x_0 w_3 x_MLOAD_0 4 (sc_t 3)) w_3) $x1980 $x2418 $x5578 $x8156 $x8512 $x73 $x8108 $x58 $x8209 $x1481 (not (and $x9143 $x4935 $x7567 $x363)))))))))))))))))))))))))))))))))))))))))))))))))))))))))))))))))))))))))))))))))))))))))))))))))))))))))
 )
(check-sat)
(get-proof)
